SECTION Graph
Nodes 339
Edges 579
E 1 2 5
E 2 3 5
E 3 4 5
E 4 5 5
E 5 6 5
E 6 7 5
E 7 8 5
E 8 9 5
E 9 10 5
E 10 11 5
E 11 12 5
E 13 14 5
E 14 15 5
E 15 16 5
E 16 17 5
E 17 18 5
E 18 19 5
E 19 20 5
E 20 21 5
E 21 22 5
E 22 23 5
E 23 24 5
E 24 25 5
E 25 26 5
E 26 27 5
E 27 28 5
E 28 29 5
E 29 30 5
E 30 31 5
E 31 32 5
E 32 33 5
E 33 34 5
E 34 35 5
E 35 36 5
E 36 37 5
E 37 38 5
E 38 39 5
E 39 40 5
E 40 41 5
E 41 42 5
E 42 43 5
E 43 44 5
E 44 45 5
E 1 46 13
E 2 47 13
E 3 48 13
E 4 49 13
E 5 50 13
E 6 51 13
E 7 52 13
E 8 53 13
E 9 54 13
E 10 55 13
E 11 56 13
E 12 57 13
E 13 59 13
E 14 60 13
E 15 61 13
E 16 62 13
E 17 63 13
E 18 64 13
E 19 65 13
E 20 66 13
E 21 67 13
E 22 68 13
E 23 69 13
E 24 70 13
E 25 71 13
E 26 72 13
E 27 73 13
E 28 74 13
E 29 75 13
E 30 76 13
E 31 77 13
E 32 78 13
E 34 79 13
E 35 80 13
E 36 81 13
E 37 82 13
E 38 83 13
E 39 84 13
E 40 85 13
E 41 86 13
E 42 87 13
E 43 88 13
E 45 89 13
E 46 47 5
E 47 48 5
E 48 49 5
E 49 50 5
E 50 51 5
E 51 52 5
E 52 53 5
E 53 54 5
E 54 55 5
E 55 56 5
E 56 57 5
E 57 58 5
E 58 59 5
E 59 60 5
E 60 61 5
E 61 62 5
E 62 63 5
E 63 64 5
E 64 65 5
E 65 66 5
E 66 67 5
E 67 68 5
E 68 69 5
E 69 70 5
E 70 71 5
E 71 72 5
E 72 73 5
E 73 74 5
E 74 75 5
E 75 76 5
E 76 77 5
E 77 78 5
E 79 80 5
E 80 81 5
E 81 82 5
E 82 83 5
E 83 84 5
E 84 85 5
E 85 86 5
E 86 87 5
E 87 88 5
E 46 90 13
E 47 91 13
E 48 92 13
E 49 93 13
E 50 94 13
E 51 95 13
E 52 96 13
E 53 97 13
E 54 98 13
E 55 99 13
E 56 100 13
E 57 101 13
E 58 102 13
E 59 103 13
E 60 104 13
E 61 105 13
E 62 106 13
E 63 107 13
E 64 108 13
E 65 109 13
E 66 110 13
E 67 111 13
E 68 112 13
E 69 113 13
E 70 114 13
E 71 115 13
E 72 116 13
E 73 117 13
E 74 118 13
E 75 119 13
E 76 120 13
E 77 121 13
E 78 122 13
E 79 123 13
E 80 124 13
E 82 125 13
E 83 126 13
E 84 127 13
E 85 128 13
E 86 129 13
E 88 130 13
E 89 131 13
E 90 91 5
E 91 92 5
E 92 93 5
E 93 94 5
E 94 95 5
E 95 96 5
E 96 97 5
E 97 98 5
E 98 99 5
E 99 100 5
E 100 101 5
E 101 102 5
E 102 103 5
E 103 104 5
E 104 105 5
E 105 106 5
E 106 107 5
E 107 108 5
E 108 109 5
E 109 110 5
E 110 111 5
E 111 112 5
E 112 113 5
E 113 114 5
E 114 115 5
E 115 116 5
E 116 117 5
E 117 118 5
E 118 119 5
E 119 120 5
E 120 121 5
E 121 122 5
E 123 124 5
E 125 126 5
E 126 127 5
E 127 128 5
E 128 129 5
E 90 132 13
E 92 133 13
E 94 134 13
E 96 135 13
E 97 136 13
E 98 137 13
E 99 138 13
E 100 139 13
E 101 140 13
E 102 141 13
E 103 142 13
E 105 143 13
E 106 144 13
E 107 145 13
E 108 146 13
E 109 147 13
E 110 148 13
E 111 149 13
E 113 150 13
E 115 151 13
E 116 152 13
E 117 153 13
E 118 154 13
E 119 155 13
E 120 156 13
E 121 157 13
E 122 158 13
E 123 160 13
E 124 161 13
E 125 162 13
E 126 163 13
E 127 164 13
E 128 165 13
E 129 166 13
E 130 167 13
E 131 169 13
E 135 136 5
E 136 137 5
E 137 138 5
E 138 139 5
E 139 140 5
E 140 141 5
E 141 142 5
E 143 144 5
E 144 145 5
E 145 146 5
E 146 147 5
E 147 148 5
E 148 149 5
E 151 152 5
E 152 153 5
E 153 154 5
E 154 155 5
E 155 156 5
E 156 157 5
E 157 158 5
E 158 159 5
E 159 160 5
E 160 161 5
E 162 163 5
E 163 164 5
E 164 165 5
E 165 166 5
E 167 168 5
E 168 169 5
E 132 170 13
E 133 171 13
E 134 172 13
E 135 173 13
E 136 174 13
E 138 175 13
E 139 176 13
E 140 177 13
E 141 178 13
E 142 179 13
E 143 180 13
E 144 181 13
E 145 182 13
E 146 183 13
E 147 184 13
E 148 185 13
E 149 186 13
E 150 187 13
E 151 188 13
E 152 189 13
E 153 190 13
E 154 191 13
E 155 192 13
E 156 193 13
E 158 194 13
E 159 195 13
E 160 196 13
E 161 197 13
E 162 199 13
E 165 202 13
E 166 203 13
E 167 205 13
E 168 206 13
E 169 207 13
E 173 174 5
E 175 176 5
E 176 177 5
E 177 178 5
E 178 179 5
E 180 181 5
E 181 182 5
E 182 183 5
E 183 184 5
E 184 185 5
E 185 186 5
E 188 189 5
E 189 190 5
E 190 191 5
E 191 192 5
E 192 193 5
E 194 195 5
E 195 196 5
E 196 197 5
E 197 198 5
E 198 199 5
E 199 200 5
E 200 201 5
E 201 202 5
E 202 203 5
E 203 204 5
E 204 205 5
E 205 206 5
E 206 207 5
E 170 208 13
E 171 210 13
E 172 212 13
E 173 214 13
E 174 215 13
E 175 216 13
E 176 217 13
E 177 218 13
E 178 219 13
E 179 220 13
E 180 222 13
E 181 223 13
E 182 224 13
E 183 225 13
E 184 226 13
E 185 227 13
E 186 228 13
E 187 230 13
E 188 232 13
E 189 233 13
E 190 234 13
E 191 235 13
E 192 236 13
E 193 237 13
E 194 238 13
E 195 239 13
E 196 240 13
E 197 241 13
E 198 242 13
E 199 243 13
E 200 244 13
E 201 245 13
E 202 246 13
E 203 247 13
E 204 248 13
E 205 249 13
E 207 250 13
E 208 209 5
E 209 210 5
E 210 211 5
E 211 212 5
E 212 213 5
E 213 214 5
E 214 215 5
E 216 217 5
E 217 218 5
E 218 219 5
E 219 220 5
E 220 221 5
E 221 222 5
E 222 223 5
E 223 224 5
E 224 225 5
E 225 226 5
E 226 227 5
E 227 228 5
E 228 229 5
E 229 230 5
E 230 231 5
E 231 232 5
E 232 233 5
E 233 234 5
E 234 235 5
E 235 236 5
E 236 237 5
E 238 239 5
E 239 240 5
E 240 241 5
E 241 242 5
E 242 243 5
E 243 244 5
E 244 245 5
E 245 246 5
E 246 247 5
E 247 248 5
E 248 249 5
E 208 251 13
E 209 252 13
E 210 253 13
E 211 254 13
E 212 255 13
E 213 256 13
E 214 257 13
E 215 258 13
E 216 260 13
E 217 261 13
E 218 262 13
E 219 263 13
E 220 264 13
E 221 265 13
E 222 266 13
E 223 267 13
E 224 268 13
E 225 269 13
E 226 270 13
E 227 271 13
E 228 272 13
E 229 273 13
E 230 274 13
E 231 275 13
E 232 276 13
E 233 277 13
E 234 278 13
E 235 279 13
E 236 280 13
E 237 281 13
E 238 283 13
E 239 284 13
E 240 285 13
E 241 286 13
E 242 287 13
E 243 288 13
E 244 289 13
E 245 290 13
E 246 291 13
E 248 292 13
E 249 293 13
E 250 294 13
E 251 252 5
E 252 253 5
E 253 254 5
E 254 255 5
E 255 256 5
E 256 257 5
E 257 258 5
E 258 259 5
E 259 260 5
E 260 261 5
E 261 262 5
E 262 263 5
E 263 264 5
E 264 265 5
E 265 266 5
E 266 267 5
E 267 268 5
E 268 269 5
E 269 270 5
E 270 271 5
E 271 272 5
E 272 273 5
E 273 274 5
E 274 275 5
E 275 276 5
E 276 277 5
E 277 278 5
E 278 279 5
E 279 280 5
E 280 281 5
E 281 282 5
E 282 283 5
E 283 284 5
E 284 285 5
E 285 286 5
E 286 287 5
E 287 288 5
E 288 289 5
E 289 290 5
E 290 291 5
E 292 293 5
E 251 295 13
E 252 296 13
E 253 297 13
E 254 298 13
E 255 299 13
E 256 300 13
E 257 301 13
E 258 302 13
E 259 303 13
E 260 304 13
E 261 305 13
E 262 306 13
E 263 307 13
E 264 308 13
E 265 309 13
E 267 311 13
E 268 312 13
E 269 313 13
E 270 314 13
E 271 315 13
E 272 316 13
E 273 317 13
E 274 318 13
E 275 319 13
E 276 320 13
E 277 321 13
E 278 322 13
E 279 323 13
E 280 324 13
E 281 325 13
E 282 326 13
E 283 327 13
E 284 328 13
E 285 329 13
E 286 330 13
E 287 331 13
E 288 332 13
E 289 333 13
E 290 334 13
E 291 335 13
E 292 336 13
E 293 337 13
E 294 339 13
E 295 296 5
E 296 297 5
E 297 298 5
E 298 299 5
E 299 300 5
E 300 301 5
E 301 302 5
E 302 303 5
E 303 304 5
E 304 305 5
E 305 306 5
E 306 307 5
E 307 308 5
E 308 309 5
E 309 310 5
E 310 311 5
E 311 312 5
E 312 313 5
E 313 314 5
E 314 315 5
E 315 316 5
E 316 317 5
E 317 318 5
E 318 319 5
E 319 320 5
E 320 321 5
E 321 322 5
E 322 323 5
E 323 324 5
E 324 325 5
E 325 326 5
E 326 327 5
E 327 328 5
E 328 329 5
E 329 330 5
E 330 331 5
E 331 332 5
E 332 333 5
E 333 334 5
E 334 335 5
E 336 337 5
E 337 338 5
E 338 339 5
END

SECTION Terminals
Terminals 13
T 32
T 43
T 80
T 86
T 90
T 92
T 94
T 103
T 111
T 113
T 136
T 194
T 205
END

EOF
